;; translated from ./ctigar/seesaw.c.vmt
;; original benchmark available at: https://es-static.fbk.eu/people/griggio/ic3ia/index.html
;; author: Alberto Griggio <griggio@fbk.eu>
(set-logic HORN)
(declare-fun state (Bool Bool Bool Bool Bool Bool Int Int) Bool)
(assert (forall ((|.s.3| Bool) (|.s.4| Bool) (|.s.2| Bool) (|.s.0| Bool) (|.s.1| Bool) (|.s.1.next| Bool) (|.s.0.next| Bool) (|.s.2.next| Bool) (|.s.3.next| Bool) (|.s.4.next| Bool) (|.s.5.next| Bool) (|main.x.next| Int) (|main.x| Int) (|main.y.next| Int) (|main.y| Int) (|.inputVar.0| Int) (|.s.5| Bool)) (=> (let ((.def_23 (not .s.5)))
(let ((.def_20 (not .s.4)))
(let ((.def_17 (not .s.3)))
(let ((.def_14 (not .s.2)))
(let ((.def_10 (not .s.1)))
(let ((.def_12 (and .def_10 .s.0)))
(let ((.def_15 (and .def_12 .def_14)))
(let ((.def_18 (and .def_15 .def_17)))
(let ((.def_21 (and .def_18 .def_20)))
(let ((.def_24 (and .def_21 .def_23)))
.def_24)))))))))) (state |.s.1| |.s.0| |.s.2| |.s.3| |.s.4| |.s.5| |main.x| |main.y|))))
(assert (forall ((|.s.3| Bool) (|.s.4| Bool) (|.s.2| Bool) (|.s.0| Bool) (|.s.1| Bool) (|.s.1.next| Bool) (|.s.0.next| Bool) (|.s.2.next| Bool) (|.s.3.next| Bool) (|.s.4.next| Bool) (|.s.5.next| Bool) (|main.x.next| Int) (|main.x| Int) (|main.y.next| Int) (|main.y| Int) (|.inputVar.0| Int) (|.s.5| Bool)) (=> (and (state |.s.1| |.s.0| |.s.2| |.s.3| |.s.4| |.s.5| |main.x| |main.y|) (let ((.def_53 (not .s.0)))
(let ((.def_10 (not .s.1)))
(let ((.def_85 (and .def_10 .def_53)))
(let ((.def_14 (not .s.2)))
(let ((.def_156 (and .def_14 .def_85)))
(let ((.def_17 (not .s.3)))
(let ((.def_157 (and .def_17 .def_156)))
(let ((.def_20 (not .s.4)))
(let ((.def_158 (and .def_20 .def_157)))
(let ((.def_23 (not .s.5)))
(let ((.def_504 (and .def_23 .def_158)))
(let ((.def_505 (not .def_504)))
(let ((.def_76 (not .s.1.next)))
(let ((.def_60 (not .s.0.next)))
(let ((.def_77 (and .def_60 .def_76)))
(let ((.def_75 (not .s.2.next)))
(let ((.def_78 (and .def_75 .def_77)))
(let ((.def_37 (not .s.3.next)))
(let ((.def_79 (and .def_37 .def_78)))
(let ((.def_40 (not .s.4.next)))
(let ((.def_80 (and .def_40 .def_79)))
(let ((.def_74 (not .s.5.next)))
(let ((.def_81 (and .def_74 .def_80)))
(let ((.def_46 (= main.x main.x.next)))
(let ((.def_82 (and .def_46 .def_81)))
(let ((.def_50 (= main.y main.y.next)))
(let ((.def_83 (and .def_50 .def_82)))
(let ((.def_506 (or .def_83 .def_505)))
(let ((.def_33 (and .s.0.next .s.1.next)))
(let ((.def_130 (and .def_33 .def_75)))
(let ((.def_131 (and .def_37 .def_130)))
(let ((.def_132 (and .def_40 .def_131)))
(let ((.def_500 (and .def_74 .def_132)))
(let ((.def_501 (and .def_46 .def_500)))
(let ((.def_502 (and .def_50 .def_501)))
(let ((.def_490 (= main.x 0)))
(let ((.def_12 (and .def_10 .s.0)))
(let ((.def_15 (and .def_12 .def_14)))
(let ((.def_18 (and .def_15 .def_17)))
(let ((.def_21 (and .def_18 .def_20)))
(let ((.def_24 (and .def_21 .def_23)))
(let ((.def_498 (and .def_24 .def_490)))
(let ((.def_499 (not .def_498)))
(let ((.def_503 (or .def_499 .def_502)))
(let ((.def_507 (and .def_503 .def_506)))
(let ((.def_61 (and .s.1.next .def_60)))
(let ((.def_149 (and .def_61 .def_75)))
(let ((.def_150 (and .def_37 .def_149)))
(let ((.def_151 (and .def_40 .def_150)))
(let ((.def_494 (and .def_74 .def_151)))
(let ((.def_495 (and .def_46 .def_494)))
(let ((.def_496 (and .def_50 .def_495)))
(let ((.def_491 (not .def_490)))
(let ((.def_492 (and .def_24 .def_491)))
(let ((.def_493 (not .def_492)))
(let ((.def_497 (or .def_493 .def_496)))
(let ((.def_508 (and .def_497 .def_507)))
(let ((.def_54 (and .s.1 .def_53)))
(let ((.def_125 (and .def_14 .def_54)))
(let ((.def_126 (and .def_17 .def_125)))
(let ((.def_127 (and .def_20 .def_126)))
(let ((.def_487 (and .def_23 .def_127)))
(let ((.def_488 (not .def_487)))
(let ((.def_489 (or .def_83 .def_488)))
(let ((.def_509 (and .def_489 .def_508)))
(let ((.def_476 (= main.y 0)))
(let ((.def_25 (and .s.1 .s.0)))
(let ((.def_99 (and .def_14 .def_25)))
(let ((.def_100 (and .def_17 .def_99)))
(let ((.def_101 (and .def_20 .def_100)))
(let ((.def_475 (and .def_23 .def_101)))
(let ((.def_484 (and .def_475 .def_476)))
(let ((.def_485 (not .def_484)))
(let ((.def_91 (and .s.0.next .def_76)))
(let ((.def_92 (and .s.2.next .def_91)))
(let ((.def_93 (and .def_37 .def_92)))
(let ((.def_94 (and .def_40 .def_93)))
(let ((.def_405 (and .def_74 .def_94)))
(let ((.def_406 (and .def_46 .def_405)))
(let ((.def_407 (and .def_50 .def_406)))
(let ((.def_486 (or .def_407 .def_485)))
(let ((.def_510 (and .def_486 .def_509)))
(let ((.def_118 (and .s.2.next .def_77)))
(let ((.def_119 (and .def_37 .def_118)))
(let ((.def_120 (and .def_40 .def_119)))
(let ((.def_480 (and .def_74 .def_120)))
(let ((.def_481 (and .def_46 .def_480)))
(let ((.def_482 (and .def_50 .def_481)))
(let ((.def_477 (not .def_476)))
(let ((.def_478 (and .def_475 .def_477)))
(let ((.def_479 (not .def_478)))
(let ((.def_483 (or .def_479 .def_482)))
(let ((.def_511 (and .def_483 .def_510)))
(let ((.def_86 (and .s.2 .def_85)))
(let ((.def_87 (and .def_17 .def_86)))
(let ((.def_88 (and .def_20 .def_87)))
(let ((.def_472 (and .def_23 .def_88)))
(let ((.def_473 (not .def_472)))
(let ((.def_474 (or .def_83 .def_473)))
(let ((.def_512 (and .def_474 .def_511)))
(let ((.def_266 (and .def_75 .def_91)))
(let ((.def_358 (and .def_37 .def_266)))
(let ((.def_467 (and .def_40 .def_358)))
(let ((.def_468 (and .s.5.next .def_467)))
(let ((.def_469 (and .def_46 .def_468)))
(let ((.def_470 (and .def_50 .def_469)))
(let ((.def_69 (and .def_12 .s.2)))
(let ((.def_70 (and .def_17 .def_69)))
(let ((.def_71 (and .def_20 .def_70)))
(let ((.def_458 (and .def_23 .def_71)))
(let ((.def_299 (= .inputVar.0 0)))
(let ((.def_307 (not .def_299)))
(let ((.def_465 (and .def_307 .def_458)))
(let ((.def_466 (not .def_465)))
(let ((.def_471 (or .def_466 .def_470)))
(let ((.def_513 (and .def_471 .def_512)))
(let ((.def_62 (and .s.2.next .def_61)))
(let ((.def_63 (and .def_37 .def_62)))
(let ((.def_64 (and .def_40 .def_63)))
(let ((.def_461 (and .def_64 .def_74)))
(let ((.def_462 (and .def_46 .def_461)))
(let ((.def_463 (and .def_50 .def_462)))
(let ((.def_459 (and .def_299 .def_458)))
(let ((.def_460 (not .def_459)))
(let ((.def_464 (or .def_460 .def_463)))
(let ((.def_514 (and .def_464 .def_513)))
(let ((.def_310 (and .s.3.next .def_118)))
(let ((.def_453 (and .def_40 .def_310)))
(let ((.def_454 (and .def_74 .def_453)))
(let ((.def_455 (and .def_46 .def_454)))
(let ((.def_456 (and .def_50 .def_455)))
(let ((.def_55 (and .s.2 .def_54)))
(let ((.def_56 (and .def_17 .def_55)))
(let ((.def_57 (and .def_20 .def_56)))
(let ((.def_444 (and .def_23 .def_57)))
(let ((.def_451 (and .def_307 .def_444)))
(let ((.def_452 (not .def_451)))
(let ((.def_457 (or .def_452 .def_456)))
(let ((.def_515 (and .def_457 .def_514)))
(let ((.def_35 (and .def_33 .s.2.next)))
(let ((.def_38 (and .def_35 .def_37)))
(let ((.def_41 (and .def_38 .def_40)))
(let ((.def_447 (and .def_41 .def_74)))
(let ((.def_448 (and .def_46 .def_447)))
(let ((.def_449 (and .def_50 .def_448)))
(let ((.def_445 (and .def_299 .def_444)))
(let ((.def_446 (not .def_445)))
(let ((.def_450 (or .def_446 .def_449)))
(let ((.def_516 (and .def_450 .def_515)))
(let ((.def_267 (and .s.3.next .def_266)))
(let ((.def_439 (and .def_40 .def_267)))
(let ((.def_440 (and .def_74 .def_439)))
(let ((.def_441 (and .def_46 .def_440)))
(let ((.def_442 (and .def_50 .def_441)))
(let ((.def_428 (<= 9 main.x)))
(let ((.def_26 (and .s.2 .def_25)))
(let ((.def_27 (and .def_17 .def_26)))
(let ((.def_28 (and .def_20 .def_27)))
(let ((.def_427 (and .def_23 .def_28)))
(let ((.def_437 (and .def_427 .def_428)))
(let ((.def_438 (not .def_437)))
(let ((.def_443 (or .def_438 .def_442)))
(let ((.def_517 (and .def_443 .def_516)))
(let ((.def_258 (and .s.3.next .def_78)))
(let ((.def_432 (and .def_40 .def_258)))
(let ((.def_433 (and .def_74 .def_432)))
(let ((.def_434 (and .def_46 .def_433)))
(let ((.def_435 (and .def_50 .def_434)))
(let ((.def_429 (not .def_428)))
(let ((.def_430 (and .def_427 .def_429)))
(let ((.def_431 (not .def_430)))
(let ((.def_436 (or .def_431 .def_435)))
(let ((.def_518 (and .def_436 .def_517)))
(let ((.def_246 (and .s.3 .def_156)))
(let ((.def_423 (and .def_20 .def_246)))
(let ((.def_424 (and .def_23 .def_423)))
(let ((.def_425 (not .def_424)))
(let ((.def_426 (or .def_83 .def_425)))
(let ((.def_519 (and .def_426 .def_518)))
(let ((.def_239 (and .s.3.next .def_149)))
(let ((.def_418 (and .def_40 .def_239)))
(let ((.def_419 (and .def_74 .def_418)))
(let ((.def_185 (* (- 1) main.x.next)))
(let ((.def_186 (+ main.x .def_185)))
(let ((.def_242 (= .def_186 (- 2))))
(let ((.def_420 (and .def_242 .def_419)))
(let ((.def_421 (and .def_50 .def_420)))
(let ((.def_235 (and .def_15 .s.3)))
(let ((.def_415 (and .def_20 .def_235)))
(let ((.def_416 (and .def_23 .def_415)))
(let ((.def_417 (not .def_416)))
(let ((.def_422 (or .def_417 .def_421)))
(let ((.def_520 (and .def_422 .def_519)))
(let ((.def_161 (and .s.3.next .def_130)))
(let ((.def_319 (and .def_40 .def_161)))
(let ((.def_320 (and .def_74 .def_319)))
(let ((.def_171 (* (- 1) main.y.next)))
(let ((.def_172 (+ main.y .def_171)))
(let ((.def_231 (= .def_172 (- 1))))
(let ((.def_412 (and .def_231 .def_320)))
(let ((.def_413 (and .def_46 .def_412)))
(let ((.def_227 (and .s.3 .def_125)))
(let ((.def_409 (and .def_20 .def_227)))
(let ((.def_410 (and .def_23 .def_409)))
(let ((.def_411 (not .def_410)))
(let ((.def_414 (or .def_411 .def_413)))
(let ((.def_521 (and .def_414 .def_520)))
(let ((.def_218 (and .s.3 .def_99)))
(let ((.def_402 (and .def_20 .def_218)))
(let ((.def_403 (and .def_23 .def_402)))
(let ((.def_404 (not .def_403)))
(let ((.def_408 (or .def_404 .def_407)))
(let ((.def_522 (and .def_408 .def_521)))
(let ((.def_397 (and .s.4.next .def_119)))
(let ((.def_398 (and .def_74 .def_397)))
(let ((.def_399 (and .def_46 .def_398)))
(let ((.def_400 (and .def_50 .def_399)))
(let ((.def_196 (and .s.3 .def_86)))
(let ((.def_386 (and .def_20 .def_196)))
(let ((.def_387 (and .def_23 .def_386)))
(let ((.def_395 (and .def_307 .def_387)))
(let ((.def_396 (not .def_395)))
(let ((.def_401 (or .def_396 .def_400)))
(let ((.def_523 (and .def_401 .def_522)))
(let ((.def_204 (and .s.3.next .def_92)))
(let ((.def_390 (and .def_40 .def_204)))
(let ((.def_391 (and .def_74 .def_390)))
(let ((.def_392 (and .def_46 .def_391)))
(let ((.def_393 (and .def_50 .def_392)))
(let ((.def_388 (and .def_299 .def_387)))
(let ((.def_389 (not .def_388)))
(let ((.def_394 (or .def_389 .def_393)))
(let ((.def_524 (and .def_394 .def_523)))
(let ((.def_182 (and .def_35 .s.3.next)))
(let ((.def_381 (and .def_40 .def_182)))
(let ((.def_382 (and .def_74 .def_381)))
(let ((.def_383 (and .def_46 .def_382)))
(let ((.def_384 (and .def_50 .def_383)))
(let ((.def_370 (<= 7 main.x)))
(let ((.def_191 (and .s.3 .def_69)))
(let ((.def_368 (and .def_20 .def_191)))
(let ((.def_369 (and .def_23 .def_368)))
(let ((.def_379 (and .def_369 .def_370)))
(let ((.def_380 (not .def_379)))
(let ((.def_385 (or .def_380 .def_384)))
(let ((.def_525 (and .def_385 .def_524)))
(let ((.def_212 (and .s.3.next .def_62)))
(let ((.def_374 (and .def_40 .def_212)))
(let ((.def_375 (and .def_74 .def_374)))
(let ((.def_376 (and .def_46 .def_375)))
(let ((.def_377 (and .def_50 .def_376)))
(let ((.def_371 (not .def_370)))
(let ((.def_372 (and .def_369 .def_371)))
(let ((.def_373 (not .def_372)))
(let ((.def_378 (or .def_373 .def_377)))
(let ((.def_526 (and .def_378 .def_525)))
(let ((.def_178 (and .s.3 .def_55)))
(let ((.def_364 (and .def_20 .def_178)))
(let ((.def_365 (and .def_23 .def_364)))
(let ((.def_366 (not .def_365)))
(let ((.def_367 (or .def_83 .def_366)))
(let ((.def_527 (and .def_367 .def_526)))
(let ((.def_359 (and .s.4.next .def_358)))
(let ((.def_360 (and .def_74 .def_359)))
(let ((.def_361 (and .def_46 .def_360)))
(let ((.def_362 (and .def_50 .def_361)))
(let ((.def_347 (<= main.x 9)))
(let ((.def_167 (and .s.3 .def_26)))
(let ((.def_344 (and .def_20 .def_167)))
(let ((.def_345 (and .def_23 .def_344)))
(let ((.def_356 (and .def_345 .def_347)))
(let ((.def_357 (not .def_356)))
(let ((.def_363 (or .def_357 .def_362)))
(let ((.def_528 (and .def_363 .def_527)))
(let ((.def_351 (and .s.4.next .def_79)))
(let ((.def_352 (and .def_74 .def_351)))
(let ((.def_353 (and .def_46 .def_352)))
(let ((.def_354 (and .def_50 .def_353)))
(let ((.def_348 (not .def_347)))
(let ((.def_349 (and .def_345 .def_348)))
(let ((.def_350 (not .def_349)))
(let ((.def_355 (or .def_350 .def_354)))
(let ((.def_529 (and .def_355 .def_528)))
(let ((.def_340 (and .s.4 .def_157)))
(let ((.def_341 (and .def_23 .def_340)))
(let ((.def_342 (not .def_341)))
(let ((.def_343 (or .def_83 .def_342)))
(let ((.def_530 (and .def_343 .def_529)))
(let ((.def_335 (and .s.4.next .def_150)))
(let ((.def_336 (and .def_74 .def_335)))
(let ((.def_187 (= .def_186 (- 1))))
(let ((.def_337 (and .def_187 .def_336)))
(let ((.def_338 (and .def_50 .def_337)))
(let ((.def_332 (and .def_18 .s.4)))
(let ((.def_333 (and .def_23 .def_332)))
(let ((.def_334 (not .def_333)))
(let ((.def_339 (or .def_334 .def_338)))
(let ((.def_531 (and .def_339 .def_530)))
(let ((.def_328 (= .def_172 (- 3))))
(let ((.def_222 (and .s.4.next .def_131)))
(let ((.def_223 (and .def_74 .def_222)))
(let ((.def_329 (and .def_223 .def_328)))
(let ((.def_330 (and .def_46 .def_329)))
(let ((.def_324 (and .s.4 .def_126)))
(let ((.def_325 (and .def_23 .def_324)))
(let ((.def_326 (not .def_325)))
(let ((.def_331 (or .def_326 .def_330)))
(let ((.def_532 (and .def_331 .def_531)))
(let ((.def_321 (and .def_46 .def_320)))
(let ((.def_322 (and .def_50 .def_321)))
(let ((.def_316 (and .s.4 .def_100)))
(let ((.def_317 (and .def_23 .def_316)))
(let ((.def_318 (not .def_317)))
(let ((.def_323 (or .def_318 .def_322)))
(let ((.def_533 (and .def_323 .def_532)))
(let ((.def_311 (and .s.4.next .def_310)))
(let ((.def_312 (and .def_74 .def_311)))
(let ((.def_313 (and .def_46 .def_312)))
(let ((.def_314 (and .def_50 .def_313)))
(let ((.def_296 (and .s.4 .def_87)))
(let ((.def_297 (and .def_23 .def_296)))
(let ((.def_308 (and .def_297 .def_307)))
(let ((.def_309 (not .def_308)))
(let ((.def_315 (or .def_309 .def_314)))
(let ((.def_534 (and .def_315 .def_533)))
(let ((.def_302 (and .s.4.next .def_93)))
(let ((.def_303 (and .def_74 .def_302)))
(let ((.def_304 (and .def_46 .def_303)))
(let ((.def_305 (and .def_50 .def_304)))
(let ((.def_300 (and .def_297 .def_299)))
(let ((.def_301 (not .def_300)))
(let ((.def_306 (or .def_301 .def_305)))
(let ((.def_535 (and .def_306 .def_534)))
(let ((.def_291 (and .def_38 .s.4.next)))
(let ((.def_292 (and .def_74 .def_291)))
(let ((.def_293 (and .def_46 .def_292)))
(let ((.def_294 (and .def_50 .def_293)))
(let ((.def_280 (<= 5 main.x)))
(let ((.def_277 (and .s.4 .def_70)))
(let ((.def_278 (and .def_23 .def_277)))
(let ((.def_289 (and .def_278 .def_280)))
(let ((.def_290 (not .def_289)))
(let ((.def_295 (or .def_290 .def_294)))
(let ((.def_536 (and .def_295 .def_535)))
(let ((.def_284 (and .s.4.next .def_63)))
(let ((.def_285 (and .def_74 .def_284)))
(let ((.def_286 (and .def_46 .def_285)))
(let ((.def_287 (and .def_50 .def_286)))
(let ((.def_281 (not .def_280)))
(let ((.def_282 (and .def_278 .def_281)))
(let ((.def_283 (not .def_282)))
(let ((.def_288 (or .def_283 .def_287)))
(let ((.def_537 (and .def_288 .def_536)))
(let ((.def_273 (and .s.4 .def_56)))
(let ((.def_274 (and .def_23 .def_273)))
(let ((.def_275 (not .def_274)))
(let ((.def_276 (or .def_83 .def_275)))
(let ((.def_538 (and .def_276 .def_537)))
(let ((.def_268 (and .s.4.next .def_267)))
(let ((.def_269 (and .def_74 .def_268)))
(let ((.def_270 (and .def_46 .def_269)))
(let ((.def_271 (and .def_50 .def_270)))
(let ((.def_254 (<= main.x 7)))
(let ((.def_251 (and .s.4 .def_27)))
(let ((.def_252 (and .def_23 .def_251)))
(let ((.def_264 (and .def_252 .def_254)))
(let ((.def_265 (not .def_264)))
(let ((.def_272 (or .def_265 .def_271)))
(let ((.def_539 (and .def_272 .def_538)))
(let ((.def_259 (and .s.4.next .def_258)))
(let ((.def_260 (and .def_74 .def_259)))
(let ((.def_261 (and .def_46 .def_260)))
(let ((.def_262 (and .def_50 .def_261)))
(let ((.def_255 (not .def_254)))
(let ((.def_256 (and .def_252 .def_255)))
(let ((.def_257 (not .def_256)))
(let ((.def_263 (or .def_257 .def_262)))
(let ((.def_540 (and .def_263 .def_539)))
(let ((.def_247 (and .s.4 .def_246)))
(let ((.def_248 (and .def_23 .def_247)))
(let ((.def_249 (not .def_248)))
(let ((.def_250 (or .def_83 .def_249)))
(let ((.def_541 (and .def_250 .def_540)))
(let ((.def_240 (and .s.4.next .def_239)))
(let ((.def_241 (and .def_74 .def_240)))
(let ((.def_243 (and .def_241 .def_242)))
(let ((.def_244 (and .def_50 .def_243)))
(let ((.def_236 (and .s.4 .def_235)))
(let ((.def_237 (and .def_23 .def_236)))
(let ((.def_238 (not .def_237)))
(let ((.def_245 (or .def_238 .def_244)))
(let ((.def_542 (and .def_245 .def_541)))
(let ((.def_162 (and .s.4.next .def_161)))
(let ((.def_163 (and .def_74 .def_162)))
(let ((.def_232 (and .def_163 .def_231)))
(let ((.def_233 (and .def_46 .def_232)))
(let ((.def_228 (and .s.4 .def_227)))
(let ((.def_229 (and .def_23 .def_228)))
(let ((.def_230 (not .def_229)))
(let ((.def_234 (or .def_230 .def_233)))
(let ((.def_543 (and .def_234 .def_542)))
(let ((.def_224 (and .def_46 .def_223)))
(let ((.def_225 (and .def_50 .def_224)))
(let ((.def_219 (and .s.4 .def_218)))
(let ((.def_220 (and .def_23 .def_219)))
(let ((.def_221 (not .def_220)))
(let ((.def_226 (or .def_221 .def_225)))
(let ((.def_544 (and .def_226 .def_543)))
(let ((.def_213 (and .s.4.next .def_212)))
(let ((.def_214 (and .def_74 .def_213)))
(let ((.def_215 (and .def_46 .def_214)))
(let ((.def_216 (and .def_50 .def_215)))
(let ((.def_200 (<= main.x 4)))
(let ((.def_197 (and .s.4 .def_196)))
(let ((.def_198 (and .def_23 .def_197)))
(let ((.def_210 (and .def_198 .def_200)))
(let ((.def_211 (not .def_210)))
(let ((.def_217 (or .def_211 .def_216)))
(let ((.def_545 (and .def_217 .def_544)))
(let ((.def_205 (and .s.4.next .def_204)))
(let ((.def_206 (and .def_74 .def_205)))
(let ((.def_207 (and .def_46 .def_206)))
(let ((.def_208 (and .def_50 .def_207)))
(let ((.def_201 (not .def_200)))
(let ((.def_202 (and .def_198 .def_201)))
(let ((.def_203 (not .def_202)))
(let ((.def_209 (or .def_203 .def_208)))
(let ((.def_546 (and .def_209 .def_545)))
(let ((.def_192 (and .s.4 .def_191)))
(let ((.def_193 (and .def_23 .def_192)))
(let ((.def_194 (not .def_193)))
(let ((.def_195 (or .def_83 .def_194)))
(let ((.def_547 (and .def_195 .def_546)))
(let ((.def_183 (and .s.4.next .def_182)))
(let ((.def_184 (and .def_74 .def_183)))
(let ((.def_188 (and .def_184 .def_187)))
(let ((.def_189 (and .def_50 .def_188)))
(let ((.def_179 (and .s.4 .def_178)))
(let ((.def_180 (and .def_23 .def_179)))
(let ((.def_181 (not .def_180)))
(let ((.def_190 (or .def_181 .def_189)))
(let ((.def_548 (and .def_190 .def_547)))
(let ((.def_174 (and .s.5.next .def_80)))
(let ((.def_173 (= .def_172 (- 2))))
(let ((.def_175 (and .def_173 .def_174)))
(let ((.def_176 (and .def_46 .def_175)))
(let ((.def_168 (and .s.4 .def_167)))
(let ((.def_169 (and .def_23 .def_168)))
(let ((.def_170 (not .def_169)))
(let ((.def_177 (or .def_170 .def_176)))
(let ((.def_549 (and .def_177 .def_548)))
(let ((.def_164 (and .def_46 .def_163)))
(let ((.def_165 (and .def_50 .def_164)))
(let ((.def_159 (and .s.5 .def_158)))
(let ((.def_160 (not .def_159)))
(let ((.def_166 (or .def_160 .def_165)))
(let ((.def_550 (and .def_166 .def_549)))
(let ((.def_152 (and .s.5.next .def_151)))
(let ((.def_153 (and .def_46 .def_152)))
(let ((.def_154 (and .def_50 .def_153)))
(let ((.def_140 (* (- 2) main.y)))
(let ((.def_141 (+ main.x .def_140)))
(let ((.def_142 (<= .def_141 0)))
(let ((.def_137 (and .def_21 .s.5)))
(let ((.def_147 (and .def_137 .def_142)))
(let ((.def_148 (not .def_147)))
(let ((.def_155 (or .def_148 .def_154)))
(let ((.def_551 (and .def_155 .def_550)))
(let ((.def_143 (not .def_142)))
(let ((.def_144 (and .def_137 .def_143)))
(let ((.def_145 (not .def_144)))
(let ((.def_43 (and .def_41 .s.5.next)))
(let ((.def_47 (and .def_43 .def_46)))
(let ((.def_51 (and .def_47 .def_50)))
(let ((.def_146 (or .def_51 .def_145)))
(let ((.def_552 (and .def_146 .def_551)))
(let ((.def_133 (and .s.5.next .def_132)))
(let ((.def_134 (and .def_46 .def_133)))
(let ((.def_135 (and .def_50 .def_134)))
(let ((.def_128 (and .s.5 .def_127)))
(let ((.def_129 (not .def_128)))
(let ((.def_136 (or .def_129 .def_135)))
(let ((.def_553 (and .def_136 .def_552)))
(let ((.def_121 (and .s.5.next .def_120)))
(let ((.def_122 (and .def_46 .def_121)))
(let ((.def_123 (and .def_50 .def_122)))
(let ((.def_105 (* (- 1) main.y)))
(let ((.def_107 (* 3 main.x)))
(let ((.def_110 (+ .def_107 .def_105)))
(let ((.def_111 (<= 0 .def_110)))
(let ((.def_102 (and .s.5 .def_101)))
(let ((.def_116 (and .def_102 .def_111)))
(let ((.def_117 (not .def_116)))
(let ((.def_124 (or .def_117 .def_123)))
(let ((.def_554 (and .def_124 .def_553)))
(let ((.def_112 (not .def_111)))
(let ((.def_113 (and .def_102 .def_112)))
(let ((.def_114 (not .def_113)))
(let ((.def_65 (and .s.5.next .def_64)))
(let ((.def_66 (and .def_46 .def_65)))
(let ((.def_67 (and .def_50 .def_66)))
(let ((.def_115 (or .def_67 .def_114)))
(let ((.def_555 (and .def_115 .def_554)))
(let ((.def_95 (and .s.5.next .def_94)))
(let ((.def_96 (and .def_46 .def_95)))
(let ((.def_97 (and .def_50 .def_96)))
(let ((.def_89 (and .s.5 .def_88)))
(let ((.def_90 (not .def_89)))
(let ((.def_98 (or .def_90 .def_97)))
(let ((.def_556 (and .def_98 .def_555)))
(let ((.def_72 (and .s.5 .def_71)))
(let ((.def_73 (not .def_72)))
(let ((.def_84 (or .def_73 .def_83)))
(let ((.def_557 (and .def_84 .def_556)))
(let ((.def_58 (and .s.5 .def_57)))
(let ((.def_59 (not .def_58)))
(let ((.def_68 (or .def_59 .def_67)))
(let ((.def_558 (and .def_68 .def_557)))
(let ((.def_29 (and .s.5 .def_28)))
(let ((.def_30 (not .def_29)))
(let ((.def_52 (or .def_30 .def_51)))
(let ((.def_559 (and .def_52 .def_558)))
.def_559))))))))))))))))))))))))))))))))))))))))))))))))))))))))))))))))))))))))))))))))))))))))))))))))))))))))))))))))))))))))))))))))))))))))))))))))))))))))))))))))))))))))))))))))))))))))))))))))))))))))))))))))))))))))))))))))))))))))))))))))))))))))))))))))))))))))))))))))))))))))))))))))))))))))))))))))))))))))))))))))))))))))))))))))))))))))))))))))))))))))))))))))))))))))))))))))))))))))))))))))))))))))))))))))))))))))))))))))))))))))))))))))))))))))))))))))))))))))))))))))))))))))))))))))))))))))))))))))))))))))))) (state |.s.1.next| |.s.0.next| |.s.2.next| |.s.3.next| |.s.4.next| |.s.5.next| |main.x.next| |main.y.next|))))
(assert (forall ((|.s.3| Bool) (|.s.4| Bool) (|.s.2| Bool) (|.s.0| Bool) (|.s.1| Bool) (|.s.1.next| Bool) (|.s.0.next| Bool) (|.s.2.next| Bool) (|.s.3.next| Bool) (|.s.4.next| Bool) (|.s.5.next| Bool) (|main.x.next| Int) (|main.x| Int) (|main.y.next| Int) (|main.y| Int) (|.inputVar.0| Int) (|.s.5| Bool)) (=> (state |.s.1| |.s.0| |.s.2| |.s.3| |.s.4| |.s.5| |main.x| |main.y|) (let ((.def_53 (not .s.0)))
(let ((.def_54 (and .s.1 .def_53)))
(let ((.def_55 (and .s.2 .def_54)))
(let ((.def_17 (not .s.3)))
(let ((.def_56 (and .def_17 .def_55)))
(let ((.def_20 (not .s.4)))
(let ((.def_57 (and .def_20 .def_56)))
(let ((.def_58 (and .s.5 .def_57)))
(let ((.def_59 (not .def_58)))
(let ((.def_25 (and .s.1 .s.0)))
(let ((.def_26 (and .s.2 .def_25)))
(let ((.def_27 (and .def_17 .def_26)))
(let ((.def_28 (and .def_20 .def_27)))
(let ((.def_29 (and .s.5 .def_28)))
(let ((.def_30 (not .def_29)))
(let ((.def_560 (and .def_30 .def_59)))
.def_560)))))))))))))))))))
(check-sat)
